# Objective value = 1.5891685739236316e+00
B0(5) 0
B1(5) 0
B2(5) 1
B3(5) 0
B4(5) 0
B5(5) 0
B6(5) 0
B7(5) 0
B8(5) 0
B9(5) 0
B10(5) 0
B11(5) 0
B12(5) 0
B13(5) 1
B14(5) 0
B15(5) 0
B16(5) 0
B17(5) 0
B18(5) 1
B19(5) 0
B20(5) 0
B21(5) 0
B22(5) 1
B23(5) 0
B24(5) 0
B25(5) 0
B26(5) 0
B27(5) 0
B28(5) 1
B29(5) 0
B30(5) 0
B31(5) 0
B32(5) 0
B33(5) 0
B34(5) 0
B35(5) 0
B36(5) 0
B37(5) 0
B38(5) 1
B39(5) 0
B40(5) 0
B41(5) 0
B42(5) 0
B43(5) 0
B44(5) 0
B45(5) 1
B46(5) 0
B47(5) 0
B48(5) 0
B49(5) 0
B50(5) 0
B51(5) 0
B52(5) 0
B53(5) 1
B54(5) 0
B55(5) 0
B56(5) 0
B57(5) 0
B58(5) 0
B59(5) 0
B60(5) 0
B61(5) 0
B62(5) 1
B63(5) 0
B64(5) 0
B65(5) 0
B66(5) 0
B67(5) 1
B68(5) 0
B69(5) 0
B70(5) 0
B71(5) 0
B72(5) 0
B73(5) 1
B74(5) 0
B75(5) 0
B76(5) 0
B77(5) 0
B78(5) 0
B79(5) 0
B80(5) 0
B81(5) 1
B82(5) 0
B83(5) 0
B84(5) 0
B85(5) 1
B86(5) 0
B87(5) 0
B88(5) 0
B89(5) 0
B90(5) 0
B91(5) 0
B92(5) 0
B93(5) 0
B94(5) 0
B95(5) 1
B96(5) 0
B97(5) 0
B98(5) 0
B99(5) 0
B100(5) 1
B101(5) 0
B102(5) 0
B103(5) 0
B104(5) 0
B105(5) 1
B106(5) 0
B107(5) 0
B108(5) 0
B109(5) 0
B110(5) 0
B111(5) 0
B112(5) 0
B113(5) 1
B114(5) 0
B115(5) 0
B116(5) 0
B117(5) 0
B118(5) 0
B119(5) 1
B120(5) 0
B121(5) 0
B122(5) 0
B123(5) 0
B124(5) 0
B125(5) 0
B126(5) 0
B127(5) 0
B128(5) 0
B129(5) 1
B130(5) 0
B131(5) 0
B132(5) 0
B133(5) 1
B134(5) 0
B135(5) 0
B136(5) 0
B137(5) 0
B138(5) 0
B139(5) 0
B140(5) 0
B141(5) 0
B142(5) 0
B143(5) 1
B144(5) 0
B145(5) 0
B146(5) 0
B147(5) 0
B148(5) 0
B149(5) 1
B150(5) 0
B151(5) 0
B152(5) 0
B153(5) 0
B154(5) 0
B155(5) 0
B156(5) 0
B157(5) 0
B158(5) 0
B159(5) 1
B160(5) 0
B161(5) 1
B162(5) 0
B163(5) 0
B164(5) 0
B165(5) 0
B166(5) 0
B167(5) 0
B168(5) 0
B169(5) 0
B170(5) 1
B171(5) 0
B172(5) 0
B173(5) 0
B174(5) 0
B175(5) 0
B176(5) 0
B177(5) 0
B178(5) 0
B179(5) 0
B180(5) 0
B181(5) 1
B182(5) 0
B183(5) 0
B184(5) 1
B185(5) 0
B186(5) 0
B187(5) 0
B188(5) 0
B189(5) 0
B190(5) 0
B191(5) 1
B192(5) 0
B193(5) 0
B194(5) 0
B195(5) 0
B196(5) 0
B197(5) 0
B198(5) 1
B199(5) 0
B200(5) 0
B201(5) 0
B202(5) 0
B203(5) 0
B204(5) 0
B205(5) 0
B206(5) 1
B207(5) 0
B208(5) 0
B209(5) 0
B210(5) 0
B211(5) 0
B212(5) 0
B213(5) 1
B214(5) 0
B215(5) 0
B216(5) 0
B217(5) 0
B218(5) 0
B219(5) 0
B220(5) 1
B221(5) 0
B222(5) 0
B223(5) 0
B224(5) 0
B225(5) 0
B226(5) 1
B227(5) 0
B228(5) 0
B229(5) 0
B230(5) 0
B231(5) 0
B232(5) 0
B233(5) 0
B234(5) 0
B235(5) 0
B236(5) 0
B237(5) 1
B238(5) 1
B239(5) 0
B240(5) 0
B241(5) 0
B242(5) 0
B243(5) 0
B244(5) 0
B245(5) 1
B246(5) 0
B247(5) 0
B248(5) 0
B249(5) 0
B250(5) 0
B251(5) 0
B252(5) 0
B253(5) 0
B254(5) 0
B255(5) 0
B256(5) 0
B257(5) 0
B258(5) 1
B259(5) 0
B260(5) 0
B261(5) 0
B262(5) 0
B263(5) 0
B264(5) 0
B265(5) 1
B266(5) 1
B267(5) 0
B268(5) 0
B269(5) 0
B270(5) 0
B271(5) 0
B272(5) 0
B273(5) 0
B274(5) 0
B275(5) 0
B276(5) 0
B277(5) 1
B278(5) 0
B279(5) 0
B280(5) 0
B281(5) 0
B282(5) 0
B283(5) 0
B284(5) 1
B285(5) 0
B286(5) 0
B287(5) 0
B288(5) 0
B289(5) 0
B290(5) 1
B291(5) 0
B292(5) 0
B293(5) 0
B294(5) 0
B295(5) 0
B296(5) 0
B297(5) 0
B298(5) 1
B299(5) 0
B300(5) 0
B301(5) 1
B302(5) 0
B303(5) 0
B304(5) 0
B305(5) 0
B306(5) 0
B307(5) 0
B308(5) 0
B309(5) 0
B310(5) 0
B311(5) 0
B312(5) 0
B313(5) 0
B314(5) 1
B315(5) 0
B316(5) 0
B317(5) 0
B318(5) 0
B319(5) 0
B320(5) 0
B321(5) 1
B322(5) 0
B323(5) 0
B324(5) 0
B325(5) 0
B326(5) 1
B327(5) 0
B328(5) 0
B329(5) 1
B330(5) 0
B331(5) 0
B332(5) 0
B333(5) 0
B334(5) 0
B335(5) 0
B336(5) 0
B337(5) 0
B338(5) 0
B339(5) 1
B340(5) 0
B341(5) 0
B342(5) 0
B343(5) 0
B344(5) 1
B345(5) 0
B346(5) 0
B347(5) 0
B348(5) 0
B349(5) 0
B350(5) 1
B351(5) 0
B352(5) 0
B353(5) 0
B354(5) 0
B355(5) 0
B356(5) 0
B357(5) 0
B358(5) 0
B359(5) 0
B360(5) 0
B361(5) 1
B362(5) 0
B363(5) 0
B364(5) 1
B365(5) 0
B366(5) 0
B367(5) 0
B368(5) 0
B369(5) 0
B370(5) 0
B371(5) 0
B372(5) 0
B373(5) 0
B374(5) 0
B375(5) 0
B376(5) 0
B377(5) 1
B378(5) 0
B379(5) 0
B380(5) 0
B381(5) 0
B382(5) 0
B383(5) 0
B384(5) 1
B385(5) 0
B386(5) 0
B387(5) 0
B388(5) 0
B389(5) 1
B390(5) 0
B391(5) 0
B392(5) 0
B393(5) 0
B394(5) 0
B395(5) 0
B396(5) 1
B397(5) 0
B398(5) 0
B399(5) 1
B400(5) 0
B401(5) 0
B402(5) 0
B403(5) 0
B404(5) 0
B405(5) 0
B406(5) 0
B407(5) 0
B408(5) 1
B409(5) 0
B410(5) 0
B411(5) 0
B412(5) 0
B413(5) 1
B414(5) 0
B415(5) 0
B416(5) 0
B417(5) 0
B418(5) 0
B419(5) 0
B420(5) 0
B421(5) 0
B422(5) 0
B423(5) 1
B424(5) 0
B425(5) 0
B426(5) 0
B427(5) 0
B428(5) 0
B429(5) 0
B430(5) 0
B431(5) 1
B432(5) 0
B433(5) 0
B434(5) 0
B435(5) 0
B436(5) 1
B437(5) 0
B438(5) 0
B439(5) 0
B440(5) 0
B441(5) 0
B442(5) 0
B443(5) 0
B444(5) 0
B445(5) 0
B446(5) 0
B447(5) 1
B448(5) 1
B449(5) 0
B450(5) 0
B451(5) 0
B452(5) 0
B453(5) 0
B454(5) 0
B455(5) 0
B456(5) 0
B457(5) 0
B458(5) 0
B459(5) 1
B460(5) 0
B461(5) 0
B462(5) 1
B463(5) 0
B464(5) 0
B465(5) 0
B466(5) 0
B467(5) 0
B468(5) 0
B469(0) 0
B470(0) 0
B471(0) 0
B472(0) 0
B473(0) 0
B474(0) 0
B475(0) 0
B476(0) 0
B477(0) 0
B478(0) 0
B479(0) 0
B480(0) 0
B481(0) 0
B482(0) 0
B483(0) 0
B484(0) 0
B485(0) 0
B486(0) 0
B487(0) 0
B488(0) 0
B489(0) 0
B490(0) 0
B491(0) 0
B492(0) 0
B493(0) 0
B494(0) 0
B495(0) 0
B496(0) 0
B497(0) 0
B498(0) 0
B499(0) 0
B500(0) 0
B501(0) 0
B502(0) 0
B503(0) 0
B504(0) 0
B505(0) 0
B506(0) 0
B507(0) 0
B508(0) 0
B509(0) 0
B510(0) 0
B511(0) 0
B512(0) 0
B513(0) 0
B514(0) 0
B515(0) 0
B516(0) 0
B517(0) 0
B518(0) 0
B519(0) 0
B520(0) 0
B521(0) 0
B522(0) 0
B523(0) 0
B524(0) 0
B525(0) 0
B526(0) 0
B527(0) 0
B528(0) 0
B529(0) 0
B530(0) 0
B531(0) 0
B532(0) 0
B533(0) 0
B534(0) 0
B535(0) 0
B536(0) 0
B537(0) 0
B538(0) 0
B539(0) 0
B540(0) 0
B541(0) 0
B542(0) 0
B543(0) 0
B544(0) 0
B545(0) 0
B546(0) 0
B547(0) 0
B548(0) 0
B549(0) 0
B550(0) 0
B551(0) 0
B552(0) 0
B553(0) 0
B554(0) 0
B555(0) 0
B556(0) 0
B557(0) 0
B558(0) 0
B559(0) 0
B560(0) 0
B561(0) 0
B562(0) 0
B563(0) 0
B564(0) 0
B565(0) 0
B566(0) 0
B567(0) 0
B568(0) 0
B569(0) 0
B570(0) 0
B571(0) 0
B572(0) 0
B573(0) 0
B574(0) 0
B575(0) 0
B576(0) 0
B577(0) 0
B578(0) 0
B579(0) 0
B580(0) 0
B581(0) 0
B582(0) 0
B583(0) 0
B584(0) 0
B585(0) 0
B586(0) 0
B587(0) 0
B588(0) 0
B589(0) 0
B590(0) 0
B591(0) 0
B592(0) 0
B593(0) 0
B594(0) 0
B595(0) 0
B596(0) 0
B597(0) 0
B598(0) 0
B599(0) 0
B600(0) 0
B601(0) 0
B602(0) 0
B603(0) 0
B604(0) 0
B605(0) 0
B606(0) 0
B607(0) 0
B608(0) 0
B609(0) 0
B610(0) 0
B611(0) 0
B612(0) 0
B613(0) 0
B614(0) 0
B615(0) 0
B616(0) 0
B617(0) 0
B618(0) 0
B619(0) 0
B620(0) 0
B621(0) 0
B622(0) 0
B623(0) 0
B624(0) 0
B625(0) 0
B626(0) 0
B627(0) 0
B628(0) 0
B629(0) 0
B630(0) 0
B631(0) 0
B632(0) 0
B633(0) 0
B634(0) 0
B635(0) 0
B636(0) 0
B637(0) 0
B638(0) 0
B639(0) 0
B640(0) 0
B641(0) 0
B642(0) 0
B643(0) 0
B644(0) 0
B645(0) 0
B646(0) 0
B647(0) 0
B648(0) 0
B649(0) 0
B650(0) 0
B651(0) 0
B652(0) 0
B653(0) 0
B654(0) 0
B655(0) 0
B656(0) 0
B657(0) 0
B658(0) 0
B659(0) 0
B660(0) 0
B661(0) 0
B662(0) 0
B663(0) 0
B664(0) 0
B665(0) 0
B666(0) 0
B667(0) 0
B668(0) 0
B669(0) 0
B670(0) 0
B671(0) 0
B672(0) 0
B673(0) 0
B674(0) 0
B675(0) 0
B676(0) 0
B677(0) 0
B678(0) 0
B679(0) 0
B680(0) 0
B681(0) 0
B682(0) 0
B683(0) 0
B684(0) 0
B685(0) 0
B686(0) 0
B687(0) 0
B688(0) 0
B689(0) 0
B690(0) 0
B691(0) 0
B692(0) 0
B693(0) 0
B694(0) 0
B695(0) 0
B696(0) 0
B697(0) 0
B698(0) 0
B699(0) 0
B700(0) 0
B701(0) 0
B702(0) 0
B703(0) 0
B704(0) 0
B705(0) 0
B706(0) 0
B707(0) 0
B708(0) 0
B709(0) 0
B710(0) 0
B711(0) 0
B712(0) 0
B713(0) 0
B714(0) 0
B715(0) 0
B716(0) 0
B717(0) 0
B718(0) 0
B719(0) 0
B720(0) 0
B721(0) 0
B722(0) 0
B723(0) 0
B724(0) 0
B725(0) 0
B726(0) 0
B727(0) 0
B728(0) 0
B729(0) 0
B730(0) 0
B731(0) 0
B732(0) 0
B733(0) 0
B734(0) 0
B735(0) 0
B736(0) 0
B737(0) 0
B738(0) 0
B739(0) 0
B740(0) 0
B741(0) 0
B742(0) 0
B743(0) 0
B744(0) 0
B745(0) 0
B746(0) 0
B747(0) 0
B748(0) 0
B749(0) 0
B750(0) 0
B751(0) 0
B752(0) 0
B753(0) 0
B754(0) 0
B755(0) 0
B756(0) 0
B757(0) 0
B758(0) 0
B759(0) 0
B760(0) 0
B761(0) 0
B762(0) 0
B763(0) 0
B764(0) 0
B765(0) 0
B766(0) 0
B767(0) 0
B768(0) 0
B769(0) 0
B770(0) 0
B771(0) 0
B772(0) 0
B773(0) 0
B774(0) 0
B775(0) 0
B776(0) 0
B777(0) 0
B778(0) 0
B779(0) 0
B780(0) 0
B781(0) 0
B782(0) 0
B783(0) 0
B784(0) 0
B785(0) 0
B786(0) 0
B787(0) 0
B788(0) 0
B789(0) 0
B790(0) 0
B791(0) 0
B792(0) 0
B793(0) 0
B794(0) 0
B795(0) 0
B796(0) 0
B797(0) 0
B798(0) 0
B799(0) 0
B800(0) 0
B801(0) 0
B802(0) 0
B803(0) 0
B804(0) 0
B805(0) 0
B806(0) 0
B807(0) 0
B808(0) 0
B809(0) 0
B810(0) 0
B811(0) 0
B812(0) 0
B813(0) 0
B814(0) 0
B815(0) 0
B816(0) 0
B817(0) 0
B818(0) 0
B819(0) 0
B820(0) 0
B821(0) 0
B822(0) 0
B823(0) 0
B824(0) 0
B825(0) 0
B826(0) 0
B827(0) 0
B828(0) 0
B829(0) 0
B830(0) 0
B831(0) 0
B832(0) 0
B833(0) 0
B834(0) 0
B835(0) 0
B836(0) 0
B837(0) 0
B838(0) 0
B839(0) 0
B840(0) 0
B841(0) 0
B842(0) 0
B843(0) 0
B844(0) 0
B845(0) 0
B846(0) 0
B847(0) 0
B848(0) 0
B849(0) 0
B850(0) 0
B851(0) 0
B852(0) 0
B853(0) 0
B854(0) 0
B855(0) 0
B856(0) 0
B857(0) 0
B858(0) 0
B859(0) 0
B860(0) 0
B861(0) 0
B862(0) 0
B863(0) 0
B864(0) 0
B865(0) 0
B866(0) 0
B867(0) 0
B868(0) 0
B869(0) 0
B870(0) 0
B871(0) 0
B872(0) 0
B873(0) 0
B874(0) 0
B875(0) 0
B876(0) 0
B877(0) 0
B878(0) 0
B879(0) 0
B880(0) 0
B881(0) 0
B882(0) 0
B883(0) 0
B884(0) 0
B885(0) 0
B886(0) 0
B887(0) 0
B888(0) 0
B889(0) 0
B890(0) 0
B891(0) 0
B892(0) 0
B893(0) 0
B894(0) 0
B895(0) 0
B896(0) 0
B897(0) 0
B898(0) 0
B899(0) 0
B900(0) 0
B901(0) 0
B902(0) 0
B903(0) 0
B904(0) 0
B905(0) 0
B906(0) 0
B907(0) 0
B908(0) 0
B909(0) 0
B910(0) 0
B911(0) 0
B912(0) 0
B913(0) 0
B914(0) 0
B915(0) 0
B916(0) 0
B917(0) 0
B918(0) 0
B919(0) 0
B920(0) 0
B921(0) 0
B922(0) 0
B923(0) 0
B924(0) 0
B925(0) 0
B926(0) 0
B927(0) 0
B928(0) 0
B929(0) 0
B930(0) 0
B931(0) 0
B932(0) 0
B933(0) 0
B934(0) 0
B935(0) 0
B936(0) 0
B937(0) 0
C938(222) 597136
C939(222) 554254
C940(222) 602930
C941(222) 608850
C942(222) 513654
C943(222) 527087
C944(222) 513255
C945(223) 30367
C946(224) 99793
C947(224) 106597
C948(224) 120656
C949(224) 183242
C950(224) 213751
C951(223) 227317
C952(1) 8.0125924978033357e-03
C953(1) 5.5387526530162094e-02
C954(1) 5.3045721950086604e-02
C955(1) 7.0359978157353231e-02
C956(1) 3.4779050547950385e-01
C957(1) 4.7679826812493437e-01
C958(1) 5.7777398118378809e-01
C959(8) 6.2375183699366044e-01
C960(7) 2.2887658053262225e-01
C961(7) 0
C962(7) 0
C963(7) 0
C964(7) 0
C965(7) 0
C966(7) 0
C967(7) 0
C968(7) 0
C969(7) 0
C970(7) 0
C971(7) 0
C972(7) 0
C973(7) 0
C974(8) 0
C975(7) 1.4737158247371732e-01
C976(7) 0
C977(7) 0
C978(7) 0
C979(7) 0
C980(7) 0
C981(7) 0
C982(7) 0
C983(7) 0
C984(7) 0
C985(7) 0
C986(7) 0
C987(7) 0
C988(7) 0
B989(2) 1
B990(2) 1
B991(2) 1
B992(2) 1
C993(9) 0
C994(8) 0
C995(8) 0
C996(8) 0
C997(8) 0
C998(8) 5.4702360500902814e-01
C999(8) 0
C1000(8) 7.7715611723760958e-16
C1001(8) 0
C1002(8) 0
C1003(8) 0
C1004(8) 0
C1005(8) 0
C1006(8) 0
C1007(8) 0
C1008(8) 0
C1009(8) 0
C1010(8) 0
C1011(8) 0
C1012(8) 0
C1013(8) 0
C1014(8) 0
C1015(8) 0
C1016(9) 0
C1017(8) 0
C1018(8) 0
C1019(8) 0
C1020(8) 1.7785092987663498e-01
C1021(8) 2.7512546511433617e-01
C1022(8) 0
C1023(8) 0
C1024(8) 0
C1025(8) 0
C1026(8) 0
C1027(8) 0
C1028(8) 0
C1029(8) 0
C1030(8) 0
C1031(8) 0
C1032(8) 0
C1033(8) 0
C1034(8) 0
C1035(8) 0
C1036(8) 0
C1037(8) 0
C1038(8) 0
B1039(2) 1
B1040(2) 1
B1041(2) 0
B1042(2) 0
B1043(2) 1
C1044(10) 0
C1045(9) 0
C1046(9) 0
C1047(9) 0
C1048(9) 0
C1049(9) 1.9336371923427509e-01
C1050(9) 0
C1051(9) 0
C1052(9) 0
C1053(9) 0
C1054(9) 0
C1055(9) 0
C1056(9) 0
C1057(9) 0
C1058(9) 0
C1059(9) 0
C1060(9) 0
C1061(9) 0
C1062(9) 0
C1063(9) 0
C1064(9) 0
C1065(9) 0
C1066(9) 0
C1067(9) 0
C1068(9) 0
C1069(9) 0
C1070(9) 0
C1071(9) 0
C1072(9) 0
C1073(9) 0
C1074(9) 0
C1075(9) 0
C1076(9) 0
C1077(9) 0
C1078(10) 0
C1079(9) 0
C1080(9) 0
C1081(9) 0
C1082(9) 6.9885601159383648e-01
C1083(9) 1.0778026917188843e-01
C1084(9) 0
C1085(9) 0
C1086(9) 0
C1087(9) 0
C1088(9) 0
C1089(9) 0
C1090(9) 0
C1091(9) 0
C1092(9) 0
C1093(9) 0
C1094(9) 0
C1095(9) 0
C1096(9) 0
C1097(9) 0
C1098(9) 0
C1099(9) 0
C1100(9) 0
C1101(9) 0
C1102(9) 0
C1103(9) 0
C1104(9) 0
C1105(9) 0
C1106(9) 0
C1107(9) 0
C1108(9) 0
C1109(9) 0
C1110(9) 0
C1111(9) 0
B1112(2) 1
B1113(2) 1
B1114(2) 1
B1115(2) 0
B1116(2) 0
B1117(2) 1
C1118(10) 0
C1119(9) 0
C1120(9) 0
C1121(9) 0
C1122(9) 0
C1123(9) 8.1860352870448572e-02
C1124(9) 6.8894702158985480e-02
C1125(9) 0
C1126(9) 0
C1127(9) 0
C1128(9) 0
C1129(9) 0
C1130(9) 0
C1131(9) 0
C1132(9) 0
C1133(9) 0
C1134(9) 0
C1135(9) 0
C1136(9) 0
C1137(9) 0
C1138(9) 0
C1139(9) 0
C1140(9) 0
C1141(9) 0
C1142(9) 0
C1143(9) 0
C1144(9) 0
C1145(9) 0
C1146(9) 0
C1147(9) 0
C1148(9) 0
C1149(9) 0
C1150(9) 0
C1151(9) 0
C1152(9) 0
C1153(9) 0
C1154(9) 0
C1155(9) 0
C1156(9) 0
C1157(9) 0
C1158(9) 0
C1159(9) 0
C1160(9) 0
C1161(9) 0
C1162(9) 0
C1163(9) 0
C1164(9) 0
C1165(9) 0
C1166(9) 0
C1167(9) 0
C1168(9) 0
C1169(10) 0
C1170(9) 0
C1171(9) 0
C1172(9) 0
C1173(9) 0
C1174(9) 8.4924494497056591e-01
C1175(9) 1.3877787807814457e-17
C1176(9) 0
C1177(9) 0
C1178(9) 0
C1179(9) 0
C1180(9) 0
C1181(9) 0
C1182(9) 0
C1183(9) 0
C1184(9) 0
C1185(9) 0
C1186(9) 0
C1187(9) 0
C1188(9) 0
C1189(9) 0
C1190(9) 0
C1191(9) 0
C1192(9) 0
C1193(9) 0
C1194(9) 0
C1195(9) 0
C1196(9) 0
C1197(9) 0
C1198(9) 0
C1199(9) 0
C1200(9) 0
C1201(9) 0
C1202(9) 0
C1203(9) 0
C1204(9) 0
C1205(9) 0
C1206(9) 0
C1207(9) 0
C1208(9) 0
C1209(9) 0
C1210(9) 0
C1211(9) 0
C1212(9) 0
C1213(9) 0
C1214(9) 0
C1215(9) 0
C1216(9) 0
C1217(9) 0
C1218(9) 0
C1219(9) 0
B1220(2) 1
B1221(2) 1
B1222(2) 1
B1223(2) 0
B1224(2) 0
B1225(2) 0
C1226(11) 0
C1227(10) 0
C1228(10) 0
C1229(10) 0
C1230(10) 0
C1231(10) 0
C1232(10) 0
C1233(10) 0
C1234(10) 0
C1235(10) 0
C1236(10) 0
C1237(10) 0
C1238(10) 0
C1239(10) 0
C1240(10) 0
C1241(10) 0
C1242(10) 0
C1243(10) 0
C1244(10) 0
C1245(10) 0
C1246(10) 0
C1247(10) 0
C1248(10) 0
C1249(10) 0
C1250(10) 0
C1251(10) 0
C1252(10) 0
C1253(10) 0
C1254(10) 0
C1255(10) 0
C1256(10) 0
C1257(10) 3.1262436659543785e-01
C1258(10) 5.4551063492403240e-01
C1259(10) 0
C1260(10) 0
C1261(10) 0
C1262(10) 0
C1263(10) 0
C1264(10) 0
C1265(10) 0
C1266(10) 0
C1267(10) 0
C1268(10) 0
C1269(10) 0
C1270(10) 0
C1271(10) 0
C1272(10) 0
C1273(10) 0
C1274(10) 0
C1275(10) 0
C1276(10) 0
C1277(10) 0
C1278(10) 0
C1279(10) 0
C1280(10) 0
C1281(10) 0
C1282(10) 0
C1283(10) 0
C1284(10) 0
C1285(10) 0
C1286(10) 0
C1287(10) 0
C1288(10) 0
C1289(10) 0
C1290(10) 0
C1291(10) 0
C1292(11) 0
C1293(10) 0
C1294(10) 0
C1295(10) 0
C1296(10) 0
C1297(10) 0
C1298(10) 0
C1299(10) 0
C1300(10) 0
C1301(10) 0
C1302(10) 0
C1303(10) 0
C1304(10) 0
C1305(10) 0
C1306(10) 0
C1307(10) 0
C1308(10) 0
C1309(10) 0
C1310(10) 0
C1311(10) 0
C1312(10) 0
C1313(10) 0
C1314(10) 0
C1315(10) 0
C1316(10) 0
C1317(10) 0
C1318(10) 0
C1319(10) 0
C1320(10) 0
C1321(10) 0
C1322(10) 0
C1323(10) 1.4186499848052975e-01
C1324(10) 0
C1325(10) 0
C1326(10) 0
C1327(10) 0
C1328(10) 0
C1329(10) 0
C1330(10) 0
C1331(10) 0
C1332(10) 0
C1333(10) 0
C1334(10) 0
C1335(10) 0
C1336(10) 0
C1337(10) 0
C1338(10) 0
C1339(10) 0
C1340(10) 0
C1341(10) 0
C1342(10) 0
C1343(10) 0
C1344(10) 0
C1345(10) 0
C1346(10) 0
C1347(10) 0
C1348(10) 0
C1349(10) 0
C1350(10) 0
C1351(10) 0
C1352(10) 0
C1353(10) 0
C1354(10) 0
C1355(10) 0
C1356(10) 0
C1357(10) 0
B1358(2) 1
B1359(2) 1
B1360(2) 0
B1361(2) 1
B1362(2) 1
B1363(2) 1
B1364(2) 1
C1365(11) 0
C1366(10) 0
C1367(10) 0
C1368(10) 0
C1369(10) 0
C1370(10) 0
C1371(10) 0
C1372(10) 0
C1373(10) 0
C1374(10) 0
C1375(10) 0
C1376(10) 0
C1377(10) 0
C1378(10) 0
C1379(10) 0
C1380(10) 0
C1381(10) 0
C1382(10) 0
C1383(10) 0
C1384(10) 0
C1385(10) 0
C1386(10) 0
C1387(10) 0
C1388(10) 0
C1389(10) 0
C1390(10) 0
C1391(10) 0
C1392(10) 0
C1393(10) 0
C1394(10) 0
C1395(10) 0
C1396(10) 0
C1397(10) 0
C1398(10) 0
C1399(10) 0
C1400(10) 0
C1401(10) 0
C1402(10) 0
C1403(10) 0
C1404(10) 0
C1405(10) 0
C1406(10) 0.344784216933277
C1407(10) 4.1536141052790321e-01
C1408(10) 0
C1409(10) 0
C1410(10) 0
C1411(10) 0
C1412(10) 0
C1413(10) 0
C1414(10) 0
C1415(10) 0
C1416(10) 0
C1417(10) 0
C1418(10) 0
C1419(10) 0
C1420(10) 0
C1421(10) 0
C1422(10) 0
C1423(10) 0
C1424(10) 0
C1425(10) 0
C1426(10) 0
C1427(10) 0
C1428(10) 0
C1429(10) 0
C1430(10) 0
C1431(10) 0
C1432(10) 0
C1433(10) 0
C1434(10) 0
C1435(10) 0
C1436(10) 0
C1437(10) 0
C1438(10) 0
C1439(11) 0
C1440(10) 0
C1441(10) 0
C1442(10) 0
C1443(10) 0
C1444(10) 0
C1445(10) 0
C1446(10) 0
C1447(10) 0
C1448(10) 0
C1449(10) 0
C1450(10) 0
C1451(10) 0
C1452(10) 0
C1453(10) 0
C1454(10) 0
C1455(10) 0
C1456(10) 0
C1457(10) 0
C1458(10) 0
C1459(10) 0
C1460(10) 0
C1461(10) 0
C1462(10) 0
C1463(10) 0
C1464(10) 0
C1465(10) 0
C1466(10) 0
C1467(10) 0
C1468(10) 0
C1469(10) 0
C1470(10) 0
C1471(10) 0
C1472(10) 0
C1473(10) 0
C1474(10) 0
C1475(10) 0
C1476(10) 0
C1477(10) 0
C1478(10) 0
C1479(10) 0
C1480(10) 2.3985437253881969e-01
C1481(10) 1.1102230246251565e-16
C1482(10) 0
C1483(10) 0
C1484(10) 0
C1485(10) 0
C1486(10) 0
C1487(10) 0
C1488(10) 0
C1489(10) 0
C1490(10) 0
C1491(10) 0
C1492(10) 0
C1493(10) 0
C1494(10) 0
C1495(10) 0
C1496(10) 0
C1497(10) 0
C1498(10) 0
C1499(10) 0
C1500(10) 0
C1501(10) 0
C1502(10) 0
C1503(10) 0
C1504(10) 0
C1505(10) 0
C1506(10) 0
C1507(10) 0
C1508(10) 0
C1509(10) 0
C1510(10) 0
C1511(10) 0
C1512(10) 0
B1513(2) 1
B1514(2) 0
B1515(2) 0
B1516(2) 0
B1517(2) 0
B1518(2) 1
B1519(2) 0
C1520(10) 0
C1521(9) 0
C1522(9) 0
C1523(9) 0
C1524(9) 0
C1525(9) 0
C1526(9) 0
C1527(9) 0
C1528(9) 0
C1529(9) 0
C1530(9) 0
C1531(9) 0
C1532(9) 0
C1533(9) 0
C1534(9) 0
C1535(9) 0
C1536(9) 0
C1537(9) 0
C1538(9) 0
C1539(9) 0
C1540(9) 0
C1541(9) 0
C1542(9) 0
C1543(9) 0
C1544(9) 0
C1545(9) -2.4503455691565240e-15
C1546(9) 0
C1547(9) 8.6241636747323147e-01
C1548(9) 0.0220810797921404
C1549(9) 0
C1550(9) 0
C1551(9) 0
C1552(9) 0
C1553(9) 0
C1554(9) 0
C1555(9) 0
C1556(9) 0
C1557(9) 0
C1558(9) 0
C1559(9) 0
C1560(9) 0
C1561(9) 0
C1562(9) 0
C1563(9) 0
C1564(9) 0
C1565(9) 0
C1566(9) 0
C1567(9) 0
C1568(9) 0
C1569(9) 0
C1570(9) 0
C1571(9) 0
C1572(9) 0
C1573(9) 0
C1574(9) 0
C1575(9) 0
C1576(9) 0
C1577(9) 0
C1578(9) 0
C1579(10) 0
C1580(9) 0
C1581(9) 0
C1582(9) 0
C1583(9) 0
C1584(9) 0
C1585(9) 0
C1586(9) 0
C1587(9) 0
C1588(9) 0
C1589(9) 0
C1590(9) 0
C1591(9) 0
C1592(9) 0
C1593(9) 0
C1594(9) 0
C1595(9) 0
C1596(9) 0
C1597(9) 0
C1598(9) 0
C1599(9) 0
C1600(9) 0
C1601(9) 0
C1602(9) 0
C1603(9) 0
C1604(9) 0
C1605(9) 0
C1606(9) 1.1550255273463134e-01
C1607(9) 0
C1608(9) 0
C1609(9) 0
C1610(9) 0
C1611(9) 0
C1612(9) 0
C1613(9) 0
C1614(9) 0
C1615(9) 0
C1616(9) 0
C1617(9) 0
C1618(9) 0
C1619(9) 0
C1620(9) 0
C1621(9) 0
C1622(9) 0
C1623(9) 0
C1624(9) 0
C1625(9) 0
C1626(9) 0
C1627(9) 0
C1628(9) 0
C1629(9) 0
C1630(9) 0
C1631(9) 0
C1632(9) 0
C1633(9) 0
C1634(9) 0
C1635(9) 0
C1636(9) 0
C1637(9) 0
B1638(2) 1
B1639(2) 0
B1640(2) 1
B1641(2) 0
B1642(2) 0
B1643(2) 1
